benchmark/results/graph__10-1000-0.10-03_2/graph__10-1000-0.10-03_2_Quinton_Monolithic.lp
\ This file has been generated by DOcplex
\ ENCODING=ISO-8859-1
\Problem name: Quinton Monolithic

Maximize
 obj: tau
Subject To
 c1: tau - 0.000772797527 m_a0_proc_0 - 0.001169590643 m_a0_proc_1
     - 0.001312335958 m_a0_proc_2 <= 0
 c2: y_a0_proc_0 + y_a0_proc_1 + y_a0_proc_2 - tau = 0
 c3: m_a0_proc_0 + m_a0_proc_1 + m_a0_proc_2 = 1
 c4: y_a0_proc_0 - m_a0_proc_0 <= 0
 c5: y_a0_proc_0 >= 0
 c6: y_a0_proc_1 - m_a0_proc_1 <= 0
 c7: y_a0_proc_1 >= 0
 c8: y_a0_proc_2 - m_a0_proc_2 <= 0
 c9: y_a0_proc_2 >= 0
 c10: tau - 0.000967117988 m_a1_proc_0 - 0.001340482574 m_a1_proc_1
      - 0.000801924619 m_a1_proc_2 <= 0
 c11: y_a1_proc_0 + y_a1_proc_1 + y_a1_proc_2 - tau = 0
 c12: m_a1_proc_0 + m_a1_proc_1 + m_a1_proc_2 = 1
 c13: y_a1_proc_0 - m_a1_proc_0 <= 0
 c14: y_a1_proc_0 >= 0
 c15: y_a1_proc_1 - m_a1_proc_1 <= 0
 c16: y_a1_proc_1 >= 0
 c17: y_a1_proc_2 - m_a1_proc_2 <= 0
 c18: y_a1_proc_2 >= 0
 c19: tau - 0.002004008016 m_a2_proc_0 - 0.001049317943 m_a2_proc_2 <= 0
 c20: y_a2_proc_0 + y_a2_proc_2 - tau = 0
 c21: m_a2_proc_0 + m_a2_proc_2 = 1
 c22: y_a2_proc_0 - m_a2_proc_0 <= 0
 c23: y_a2_proc_0 >= 0
 c24: y_a2_proc_2 - m_a2_proc_2 <= 0
 c25: y_a2_proc_2 >= 0
 c26: tau - 0.001464128843 m_a3_proc_0 - 0.001154734411 m_a3_proc_1 <= 0
 c27: y_a3_proc_0 + y_a3_proc_1 - tau = 0
 c28: m_a3_proc_0 + m_a3_proc_1 = 1
 c29: y_a3_proc_0 - m_a3_proc_0 <= 0
 c30: y_a3_proc_0 >= 0
 c31: y_a3_proc_1 - m_a3_proc_1 <= 0
 c32: y_a3_proc_1 >= 0
 c33: tau - 0.001007049345 m_a4_proc_0 - 0.000844594595 m_a4_proc_1
      - 0.001020408163 m_a4_proc_2 <= 0
 c34: y_a4_proc_0 + y_a4_proc_1 + y_a4_proc_2 - tau = 0
 c35: m_a4_proc_0 + m_a4_proc_1 + m_a4_proc_2 = 1
 c36: y_a4_proc_0 - m_a4_proc_0 <= 0
 c37: y_a4_proc_0 >= 0
 c38: y_a4_proc_1 - m_a4_proc_1 <= 0
 c39: y_a4_proc_1 >= 0
 c40: y_a4_proc_2 - m_a4_proc_2 <= 0
 c41: y_a4_proc_2 >= 0
 c42: tau - 0.001269035533 m_a5_proc_0 - 0.001002004008 m_a5_proc_2 <= 0
 c43: y_a5_proc_0 + y_a5_proc_2 - tau = 0
 c44: m_a5_proc_0 + m_a5_proc_2 = 1
 c45: y_a5_proc_0 - m_a5_proc_0 <= 0
 c46: y_a5_proc_0 >= 0
 c47: y_a5_proc_2 - m_a5_proc_2 <= 0
 c48: y_a5_proc_2 >= 0
 c49: tau - 0.001006036217 m_a6_proc_1 - 0.001245330012 m_a6_proc_2 <= 0
 c50: y_a6_proc_1 + y_a6_proc_2 - tau = 0
 c51: m_a6_proc_1 + m_a6_proc_2 = 1
 c52: y_a6_proc_1 - m_a6_proc_1 <= 0
 c53: y_a6_proc_1 >= 0
 c54: y_a6_proc_2 - m_a6_proc_2 <= 0
 c55: y_a6_proc_2 >= 0
 c56: tau - 0.001133786848 m_a7_proc_1 - 0.000946969697 m_a7_proc_2 <= 0
 c57: y_a7_proc_1 + y_a7_proc_2 - tau = 0
 c58: m_a7_proc_1 + m_a7_proc_2 = 1
 c59: y_a7_proc_1 - m_a7_proc_1 <= 0
 c60: y_a7_proc_1 >= 0
 c61: y_a7_proc_2 - m_a7_proc_2 <= 0
 c62: y_a7_proc_2 >= 0
 c63: tau - 0.001008064516 m_a8_proc_0 - 0.000786782061 m_a8_proc_1
      - 0.001026694045 m_a8_proc_2 <= 0
 c64: y_a8_proc_0 + y_a8_proc_1 + y_a8_proc_2 - tau = 0
 c65: m_a8_proc_0 + m_a8_proc_1 + m_a8_proc_2 = 1
 c66: y_a8_proc_0 - m_a8_proc_0 <= 0
 c67: y_a8_proc_0 >= 0
 c68: y_a8_proc_1 - m_a8_proc_1 <= 0
 c69: y_a8_proc_1 >= 0
 c70: y_a8_proc_2 - m_a8_proc_2 <= 0
 c71: y_a8_proc_2 >= 0
 c72: tau - 0.000860585198 m_a9_proc_0 - 0.000836820084 m_a9_proc_1
      - 0.000961538462 m_a9_proc_2 <= 0
 c73: y_a9_proc_0 + y_a9_proc_1 + y_a9_proc_2 - tau = 0
 c74: m_a9_proc_0 + m_a9_proc_1 + m_a9_proc_2 = 1
 c75: y_a9_proc_0 - m_a9_proc_0 <= 0
 c76: y_a9_proc_0 >= 0
 c77: y_a9_proc_1 - m_a9_proc_1 <= 0
 c78: y_a9_proc_1 >= 0
 c79: y_a9_proc_2 - m_a9_proc_2 <= 0
 c80: y_a9_proc_2 >= 0
 c81: u_a0 - u_a1 - 1034 y_a1_proc_0 - 746 y_a1_proc_1 - 1247 y_a1_proc_2 >= 0
 c82: u_a1 - u_a2 - 499 y_a2_proc_0 - 953 y_a2_proc_2 >= -1
 c83: u_a0 - u_a3 - 683 y_a3_proc_0 - 866 y_a3_proc_1 >= -1
 c84: u_a2 - u_a4 - 993 y_a4_proc_0 - 1184 y_a4_proc_1 - 980 y_a4_proc_2 >= 0
 c85: u_a1 - u_a5 - 788 y_a5_proc_0 - 998 y_a5_proc_2 >= 0
 c86: u_a6 - u_a2 - 499 y_a2_proc_0 - 953 y_a2_proc_2 >= -1
 c87: u_a4 - u_a7 - 882 y_a7_proc_1 - 1056 y_a7_proc_2 >= 0
 c88: u_a3 - u_a8 - 992 y_a8_proc_0 - 1271 y_a8_proc_1 - 974 y_a8_proc_2 >= 0
 c89: u_a7 - u_a9 - 1162 y_a9_proc_0 - 1195 y_a9_proc_1 - 1040 y_a9_proc_2 >= 0
 c90: u_a3 - u_a2 - 499 y_a2_proc_0 - 953 y_a2_proc_2 >= -1
 c91: u_a5 - u_a3 - 683 y_a3_proc_0 - 866 y_a3_proc_1 >= -1
 c92: u_a2 - u_a6 - 994 y_a6_proc_1 - 803 y_a6_proc_2 >= 0
 c93: u_a2 - u_a0 - 1294 y_a0_proc_0 - 855 y_a0_proc_1 - 762 y_a0_proc_2 >= 0
 c94: u_a5 - u_a8 - 992 y_a8_proc_0 - 1271 y_a8_proc_1 - 974 y_a8_proc_2 >= 0
 c95: u_a9 - u_a8 - 992 y_a8_proc_0 - 1271 y_a8_proc_1 - 974 y_a8_proc_2 >= -1
 c96: u_a7 - u_a0 - 1294 y_a0_proc_0 - 855 y_a0_proc_1 - 762 y_a0_proc_2 >= 0
 c97: u_a6 - u_a0 - 1294 y_a0_proc_0 - 855 y_a0_proc_1 - 762 y_a0_proc_2 >= 0
 c98: u_a8 - u_a9 - 1162 y_a9_proc_0 - 1195 y_a9_proc_1 - 1040 y_a9_proc_2 >= 0
 c99: u_a4 - u_a3 - 683 y_a3_proc_0 - 866 y_a3_proc_1 >= 0
 c100: u_a1 + K_a0_a1 - 1294 m_a0_proc_2 - 1294 m_a1_proc_2 - u_a0
       - 762 y_a0_proc_2 >= -2588
 c101: u_a1 + K_a0_a1 - 1294 m_a0_proc_0 - 1294 m_a1_proc_0 - u_a0
       - 1294 y_a0_proc_0 >= -2588
 c102: u_a1 + K_a0_a1 - 1294 m_a0_proc_1 - 1294 m_a1_proc_1 - u_a0
       - 855 y_a0_proc_1 >= -2588
 c103: K_a0_a1 + K_a1_a0 = 1
 c104: u_a0 + K_a1_a0 - 1294 m_a0_proc_2 - 1294 m_a1_proc_2 - u_a1
       - 1247 y_a1_proc_2 >= -2588
 c105: u_a0 + K_a1_a0 - 1294 m_a0_proc_0 - 1294 m_a1_proc_0 - u_a1
       - 1034 y_a1_proc_0 >= -2588
 c106: u_a0 + K_a1_a0 - 1294 m_a0_proc_1 - 1294 m_a1_proc_1 - u_a1
       - 746 y_a1_proc_1 >= -2588
 c107: K_a0_a1 + K_a1_a0 = 1
 c108: u_a2 + K_a0_a2 - 1294 m_a0_proc_2 - 1294 m_a2_proc_2 - u_a0
       - 762 y_a0_proc_2 >= -2588
 c109: u_a2 + K_a0_a2 - 1294 m_a0_proc_0 - 1294 m_a2_proc_0 - u_a0
       - 1294 y_a0_proc_0 >= -2588
 c110: K_a0_a2 + K_a2_a0 = 1
 c111: u_a0 + K_a2_a0 - 1294 m_a0_proc_2 - 1294 m_a2_proc_2 - u_a2
       - 953 y_a2_proc_2 >= -2588
 c112: u_a0 + K_a2_a0 - 1294 m_a0_proc_0 - 1294 m_a2_proc_0 - u_a2
       - 499 y_a2_proc_0 >= -2588
 c113: K_a0_a2 + K_a2_a0 = 1
 c114: u_a3 + K_a0_a3 - 1294 m_a0_proc_0 - 1294 m_a3_proc_0 - u_a0
       - 1294 y_a0_proc_0 >= -2588
 c115: u_a3 + K_a0_a3 - 1294 m_a0_proc_1 - 1294 m_a3_proc_1 - u_a0
       - 855 y_a0_proc_1 >= -2588
 c116: K_a0_a3 + K_a3_a0 = 1
 c117: u_a0 + K_a3_a0 - 1294 m_a0_proc_0 - 1294 m_a3_proc_0 - u_a3
       - 683 y_a3_proc_0 >= -2588
 c118: u_a0 + K_a3_a0 - 1294 m_a0_proc_1 - 1294 m_a3_proc_1 - u_a3
       - 866 y_a3_proc_1 >= -2588
 c119: K_a0_a3 + K_a3_a0 = 1
 c120: u_a4 + K_a0_a4 - 1294 m_a0_proc_2 - 1294 m_a4_proc_2 - u_a0
       - 762 y_a0_proc_2 >= -2588
 c121: u_a4 + K_a0_a4 - 1294 m_a0_proc_0 - 1294 m_a4_proc_0 - u_a0
       - 1294 y_a0_proc_0 >= -2588
 c122: u_a4 + K_a0_a4 - 1294 m_a0_proc_1 - 1294 m_a4_proc_1 - u_a0
       - 855 y_a0_proc_1 >= -2588
 c123: K_a0_a4 + K_a4_a0 = 1
 c124: u_a0 + K_a4_a0 - 1294 m_a0_proc_2 - 1294 m_a4_proc_2 - u_a4
       - 980 y_a4_proc_2 >= -2588
 c125: u_a0 + K_a4_a0 - 1294 m_a0_proc_0 - 1294 m_a4_proc_0 - u_a4
       - 993 y_a4_proc_0 >= -2588
 c126: u_a0 + K_a4_a0 - 1294 m_a0_proc_1 - 1294 m_a4_proc_1 - u_a4
       - 1184 y_a4_proc_1 >= -2588
 c127: K_a0_a4 + K_a4_a0 = 1
 c128: u_a5 + K_a0_a5 - 1294 m_a0_proc_2 - 1294 m_a5_proc_2 - u_a0
       - 762 y_a0_proc_2 >= -2588
 c129: u_a5 + K_a0_a5 - 1294 m_a0_proc_0 - 1294 m_a5_proc_0 - u_a0
       - 1294 y_a0_proc_0 >= -2588
 c130: K_a0_a5 + K_a5_a0 = 1
 c131: u_a0 + K_a5_a0 - 1294 m_a0_proc_2 - 1294 m_a5_proc_2 - u_a5
       - 998 y_a5_proc_2 >= -2588
 c132: u_a0 + K_a5_a0 - 1294 m_a0_proc_0 - 1294 m_a5_proc_0 - u_a5
       - 788 y_a5_proc_0 >= -2588
 c133: K_a0_a5 + K_a5_a0 = 1
 c134: u_a6 + K_a0_a6 - 1294 m_a0_proc_2 - 1294 m_a6_proc_2 - u_a0
       - 762 y_a0_proc_2 >= -2588
 c135: u_a6 + K_a0_a6 - 1294 m_a0_proc_1 - 1294 m_a6_proc_1 - u_a0
       - 855 y_a0_proc_1 >= -2588
 c136: K_a0_a6 + K_a6_a0 = 1
 c137: u_a0 + K_a6_a0 - 1294 m_a0_proc_2 - 1294 m_a6_proc_2 - u_a6
       - 803 y_a6_proc_2 >= -2588
 c138: u_a0 + K_a6_a0 - 1294 m_a0_proc_1 - 1294 m_a6_proc_1 - u_a6
       - 994 y_a6_proc_1 >= -2588
 c139: K_a0_a6 + K_a6_a0 = 1
 c140: u_a7 + K_a0_a7 - 1294 m_a0_proc_2 - 1294 m_a7_proc_2 - u_a0
       - 762 y_a0_proc_2 >= -2588
 c141: u_a7 + K_a0_a7 - 1294 m_a0_proc_1 - 1294 m_a7_proc_1 - u_a0
       - 855 y_a0_proc_1 >= -2588
 c142: K_a0_a7 + K_a7_a0 = 1
 c143: u_a0 + K_a7_a0 - 1294 m_a0_proc_2 - 1294 m_a7_proc_2 - u_a7
       - 1056 y_a7_proc_2 >= -2588
 c144: u_a0 + K_a7_a0 - 1294 m_a0_proc_1 - 1294 m_a7_proc_1 - u_a7
       - 882 y_a7_proc_1 >= -2588
 c145: K_a0_a7 + K_a7_a0 = 1
 c146: u_a8 + K_a0_a8 - 1294 m_a0_proc_2 - 1294 m_a8_proc_2 - u_a0
       - 762 y_a0_proc_2 >= -2588
 c147: u_a8 + K_a0_a8 - 1294 m_a0_proc_0 - 1294 m_a8_proc_0 - u_a0
       - 1294 y_a0_proc_0 >= -2588
 c148: u_a8 + K_a0_a8 - 1294 m_a0_proc_1 - 1294 m_a8_proc_1 - u_a0
       - 855 y_a0_proc_1 >= -2588
 c149: K_a0_a8 + K_a8_a0 = 1
 c150: u_a0 + K_a8_a0 - 1294 m_a0_proc_2 - 1294 m_a8_proc_2 - u_a8
       - 974 y_a8_proc_2 >= -2588
 c151: u_a0 + K_a8_a0 - 1294 m_a0_proc_0 - 1294 m_a8_proc_0 - u_a8
       - 992 y_a8_proc_0 >= -2588
 c152: u_a0 + K_a8_a0 - 1294 m_a0_proc_1 - 1294 m_a8_proc_1 - u_a8
       - 1271 y_a8_proc_1 >= -2588
 c153: K_a0_a8 + K_a8_a0 = 1
 c154: u_a9 + K_a0_a9 - 1294 m_a0_proc_2 - 1294 m_a9_proc_2 - u_a0
       - 762 y_a0_proc_2 >= -2588
 c155: u_a9 + K_a0_a9 - 1294 m_a0_proc_0 - 1294 m_a9_proc_0 - u_a0
       - 1294 y_a0_proc_0 >= -2588
 c156: u_a9 + K_a0_a9 - 1294 m_a0_proc_1 - 1294 m_a9_proc_1 - u_a0
       - 855 y_a0_proc_1 >= -2588
 c157: K_a0_a9 + K_a9_a0 = 1
 c158: u_a0 + K_a9_a0 - 1294 m_a0_proc_2 - 1294 m_a9_proc_2 - u_a9
       - 1040 y_a9_proc_2 >= -2588
 c159: u_a0 + K_a9_a0 - 1294 m_a0_proc_0 - 1294 m_a9_proc_0 - u_a9
       - 1162 y_a9_proc_0 >= -2588
 c160: u_a0 + K_a9_a0 - 1294 m_a0_proc_1 - 1294 m_a9_proc_1 - u_a9
       - 1195 y_a9_proc_1 >= -2588
 c161: K_a0_a9 + K_a9_a0 = 1
 c162: u_a2 + K_a1_a2 - 1294 m_a1_proc_2 - 1294 m_a2_proc_2 - u_a1
       - 1247 y_a1_proc_2 >= -2588
 c163: u_a2 + K_a1_a2 - 1294 m_a1_proc_0 - 1294 m_a2_proc_0 - u_a1
       - 1034 y_a1_proc_0 >= -2588
 c164: K_a1_a2 + K_a2_a1 = 1
 c165: u_a1 + K_a2_a1 - 1294 m_a1_proc_2 - 1294 m_a2_proc_2 - u_a2
       - 953 y_a2_proc_2 >= -2588
 c166: u_a1 + K_a2_a1 - 1294 m_a1_proc_0 - 1294 m_a2_proc_0 - u_a2
       - 499 y_a2_proc_0 >= -2588
 c167: K_a1_a2 + K_a2_a1 = 1
 c168: u_a3 + K_a1_a3 - 1294 m_a1_proc_0 - 1294 m_a3_proc_0 - u_a1
       - 1034 y_a1_proc_0 >= -2588
 c169: u_a3 + K_a1_a3 - 1294 m_a1_proc_1 - 1294 m_a3_proc_1 - u_a1
       - 746 y_a1_proc_1 >= -2588
 c170: K_a1_a3 + K_a3_a1 = 1
 c171: u_a1 + K_a3_a1 - 1294 m_a1_proc_0 - 1294 m_a3_proc_0 - u_a3
       - 683 y_a3_proc_0 >= -2588
 c172: u_a1 + K_a3_a1 - 1294 m_a1_proc_1 - 1294 m_a3_proc_1 - u_a3
       - 866 y_a3_proc_1 >= -2588
 c173: K_a1_a3 + K_a3_a1 = 1
 c174: u_a4 + K_a1_a4 - 1294 m_a1_proc_2 - 1294 m_a4_proc_2 - u_a1
       - 1247 y_a1_proc_2 >= -2588
 c175: u_a4 + K_a1_a4 - 1294 m_a1_proc_0 - 1294 m_a4_proc_0 - u_a1
       - 1034 y_a1_proc_0 >= -2588
 c176: u_a4 + K_a1_a4 - 1294 m_a1_proc_1 - 1294 m_a4_proc_1 - u_a1
       - 746 y_a1_proc_1 >= -2588
 c177: K_a1_a4 + K_a4_a1 = 1
 c178: u_a1 + K_a4_a1 - 1294 m_a1_proc_2 - 1294 m_a4_proc_2 - u_a4
       - 980 y_a4_proc_2 >= -2588
 c179: u_a1 + K_a4_a1 - 1294 m_a1_proc_0 - 1294 m_a4_proc_0 - u_a4
       - 993 y_a4_proc_0 >= -2588
 c180: u_a1 + K_a4_a1 - 1294 m_a1_proc_1 - 1294 m_a4_proc_1 - u_a4
       - 1184 y_a4_proc_1 >= -2588
 c181: K_a1_a4 + K_a4_a1 = 1
 c182: u_a5 + K_a1_a5 - 1294 m_a1_proc_2 - 1294 m_a5_proc_2 - u_a1
       - 1247 y_a1_proc_2 >= -2588
 c183: u_a5 + K_a1_a5 - 1294 m_a1_proc_0 - 1294 m_a5_proc_0 - u_a1
       - 1034 y_a1_proc_0 >= -2588
 c184: K_a1_a5 + K_a5_a1 = 1
 c185: u_a1 + K_a5_a1 - 1294 m_a1_proc_2 - 1294 m_a5_proc_2 - u_a5
       - 998 y_a5_proc_2 >= -2588
 c186: u_a1 + K_a5_a1 - 1294 m_a1_proc_0 - 1294 m_a5_proc_0 - u_a5
       - 788 y_a5_proc_0 >= -2588
 c187: K_a1_a5 + K_a5_a1 = 1
 c188: u_a6 + K_a1_a6 - 1294 m_a1_proc_2 - 1294 m_a6_proc_2 - u_a1
       - 1247 y_a1_proc_2 >= -2588
 c189: u_a6 + K_a1_a6 - 1294 m_a1_proc_1 - 1294 m_a6_proc_1 - u_a1
       - 746 y_a1_proc_1 >= -2588
 c190: K_a1_a6 + K_a6_a1 = 1
 c191: u_a1 + K_a6_a1 - 1294 m_a1_proc_2 - 1294 m_a6_proc_2 - u_a6
       - 803 y_a6_proc_2 >= -2588
 c192: u_a1 + K_a6_a1 - 1294 m_a1_proc_1 - 1294 m_a6_proc_1 - u_a6
       - 994 y_a6_proc_1 >= -2588
 c193: K_a1_a6 + K_a6_a1 = 1
 c194: u_a7 + K_a1_a7 - 1294 m_a1_proc_2 - 1294 m_a7_proc_2 - u_a1
       - 1247 y_a1_proc_2 >= -2588
 c195: u_a7 + K_a1_a7 - 1294 m_a1_proc_1 - 1294 m_a7_proc_1 - u_a1
       - 746 y_a1_proc_1 >= -2588
 c196: K_a1_a7 + K_a7_a1 = 1
 c197: u_a1 + K_a7_a1 - 1294 m_a1_proc_2 - 1294 m_a7_proc_2 - u_a7
       - 1056 y_a7_proc_2 >= -2588
 c198: u_a1 + K_a7_a1 - 1294 m_a1_proc_1 - 1294 m_a7_proc_1 - u_a7
       - 882 y_a7_proc_1 >= -2588
 c199: K_a1_a7 + K_a7_a1 = 1
 c200: u_a8 + K_a1_a8 - 1294 m_a1_proc_2 - 1294 m_a8_proc_2 - u_a1
       - 1247 y_a1_proc_2 >= -2588
 c201: u_a8 + K_a1_a8 - 1294 m_a1_proc_0 - 1294 m_a8_proc_0 - u_a1
       - 1034 y_a1_proc_0 >= -2588
 c202: u_a8 + K_a1_a8 - 1294 m_a1_proc_1 - 1294 m_a8_proc_1 - u_a1
       - 746 y_a1_proc_1 >= -2588
 c203: K_a1_a8 + K_a8_a1 = 1
 c204: u_a1 + K_a8_a1 - 1294 m_a1_proc_2 - 1294 m_a8_proc_2 - u_a8
       - 974 y_a8_proc_2 >= -2588
 c205: u_a1 + K_a8_a1 - 1294 m_a1_proc_0 - 1294 m_a8_proc_0 - u_a8
       - 992 y_a8_proc_0 >= -2588
 c206: u_a1 + K_a8_a1 - 1294 m_a1_proc_1 - 1294 m_a8_proc_1 - u_a8
       - 1271 y_a8_proc_1 >= -2588
 c207: K_a1_a8 + K_a8_a1 = 1
 c208: u_a9 + K_a1_a9 - 1294 m_a1_proc_2 - 1294 m_a9_proc_2 - u_a1
       - 1247 y_a1_proc_2 >= -2588
 c209: u_a9 + K_a1_a9 - 1294 m_a1_proc_0 - 1294 m_a9_proc_0 - u_a1
       - 1034 y_a1_proc_0 >= -2588
 c210: u_a9 + K_a1_a9 - 1294 m_a1_proc_1 - 1294 m_a9_proc_1 - u_a1
       - 746 y_a1_proc_1 >= -2588
 c211: K_a1_a9 + K_a9_a1 = 1
 c212: u_a1 + K_a9_a1 - 1294 m_a1_proc_2 - 1294 m_a9_proc_2 - u_a9
       - 1040 y_a9_proc_2 >= -2588
 c213: u_a1 + K_a9_a1 - 1294 m_a1_proc_0 - 1294 m_a9_proc_0 - u_a9
       - 1162 y_a9_proc_0 >= -2588
 c214: u_a1 + K_a9_a1 - 1294 m_a1_proc_1 - 1294 m_a9_proc_1 - u_a9
       - 1195 y_a9_proc_1 >= -2588
 c215: K_a1_a9 + K_a9_a1 = 1
 c216: u_a3 + K_a2_a3 - 1294 m_a2_proc_0 - 1294 m_a3_proc_0 - u_a2
       - 499 y_a2_proc_0 >= -2588
 c217: K_a2_a3 + K_a3_a2 = 1
 c218: u_a2 + K_a3_a2 - 1294 m_a2_proc_0 - 1294 m_a3_proc_0 - u_a3
       - 683 y_a3_proc_0 >= -2588
 c219: K_a2_a3 + K_a3_a2 = 1
 c220: u_a4 + K_a2_a4 - 1294 m_a2_proc_2 - 1294 m_a4_proc_2 - u_a2
       - 953 y_a2_proc_2 >= -2588
 c221: u_a4 + K_a2_a4 - 1294 m_a2_proc_0 - 1294 m_a4_proc_0 - u_a2
       - 499 y_a2_proc_0 >= -2588
 c222: K_a2_a4 + K_a4_a2 = 1
 c223: u_a2 + K_a4_a2 - 1294 m_a2_proc_2 - 1294 m_a4_proc_2 - u_a4
       - 980 y_a4_proc_2 >= -2588
 c224: u_a2 + K_a4_a2 - 1294 m_a2_proc_0 - 1294 m_a4_proc_0 - u_a4
       - 993 y_a4_proc_0 >= -2588
 c225: K_a2_a4 + K_a4_a2 = 1
 c226: u_a5 + K_a2_a5 - 1294 m_a2_proc_2 - 1294 m_a5_proc_2 - u_a2
       - 953 y_a2_proc_2 >= -2588
 c227: u_a5 + K_a2_a5 - 1294 m_a2_proc_0 - 1294 m_a5_proc_0 - u_a2
       - 499 y_a2_proc_0 >= -2588
 c228: K_a2_a5 + K_a5_a2 = 1
 c229: u_a2 + K_a5_a2 - 1294 m_a2_proc_2 - 1294 m_a5_proc_2 - u_a5
       - 998 y_a5_proc_2 >= -2588
 c230: u_a2 + K_a5_a2 - 1294 m_a2_proc_0 - 1294 m_a5_proc_0 - u_a5
       - 788 y_a5_proc_0 >= -2588
 c231: K_a2_a5 + K_a5_a2 = 1
 c232: u_a6 + K_a2_a6 - 1294 m_a2_proc_2 - 1294 m_a6_proc_2 - u_a2
       - 953 y_a2_proc_2 >= -2588
 c233: K_a2_a6 + K_a6_a2 = 1
 c234: u_a2 + K_a6_a2 - 1294 m_a2_proc_2 - 1294 m_a6_proc_2 - u_a6
       - 803 y_a6_proc_2 >= -2588
 c235: K_a2_a6 + K_a6_a2 = 1
 c236: u_a7 + K_a2_a7 - 1294 m_a2_proc_2 - 1294 m_a7_proc_2 - u_a2
       - 953 y_a2_proc_2 >= -2588
 c237: K_a2_a7 + K_a7_a2 = 1
 c238: u_a2 + K_a7_a2 - 1294 m_a2_proc_2 - 1294 m_a7_proc_2 - u_a7
       - 1056 y_a7_proc_2 >= -2588
 c239: K_a2_a7 + K_a7_a2 = 1
 c240: u_a8 + K_a2_a8 - 1294 m_a2_proc_2 - 1294 m_a8_proc_2 - u_a2
       - 953 y_a2_proc_2 >= -2588
 c241: u_a8 + K_a2_a8 - 1294 m_a2_proc_0 - 1294 m_a8_proc_0 - u_a2
       - 499 y_a2_proc_0 >= -2588
 c242: K_a2_a8 + K_a8_a2 = 1
 c243: u_a2 + K_a8_a2 - 1294 m_a2_proc_2 - 1294 m_a8_proc_2 - u_a8
       - 974 y_a8_proc_2 >= -2588
 c244: u_a2 + K_a8_a2 - 1294 m_a2_proc_0 - 1294 m_a8_proc_0 - u_a8
       - 992 y_a8_proc_0 >= -2588
 c245: K_a2_a8 + K_a8_a2 = 1
 c246: u_a9 + K_a2_a9 - 1294 m_a2_proc_2 - 1294 m_a9_proc_2 - u_a2
       - 953 y_a2_proc_2 >= -2588
 c247: u_a9 + K_a2_a9 - 1294 m_a2_proc_0 - 1294 m_a9_proc_0 - u_a2
       - 499 y_a2_proc_0 >= -2588
 c248: K_a2_a9 + K_a9_a2 = 1
 c249: u_a2 + K_a9_a2 - 1294 m_a2_proc_2 - 1294 m_a9_proc_2 - u_a9
       - 1040 y_a9_proc_2 >= -2588
 c250: u_a2 + K_a9_a2 - 1294 m_a2_proc_0 - 1294 m_a9_proc_0 - u_a9
       - 1162 y_a9_proc_0 >= -2588
 c251: K_a2_a9 + K_a9_a2 = 1
 c252: u_a4 + K_a3_a4 - 1294 m_a3_proc_0 - 1294 m_a4_proc_0 - u_a3
       - 683 y_a3_proc_0 >= -2588
 c253: u_a4 + K_a3_a4 - 1294 m_a3_proc_1 - 1294 m_a4_proc_1 - u_a3
       - 866 y_a3_proc_1 >= -2588
 c254: K_a3_a4 + K_a4_a3 = 1
 c255: u_a3 + K_a4_a3 - 1294 m_a3_proc_0 - 1294 m_a4_proc_0 - u_a4
       - 993 y_a4_proc_0 >= -2588
 c256: u_a3 + K_a4_a3 - 1294 m_a3_proc_1 - 1294 m_a4_proc_1 - u_a4
       - 1184 y_a4_proc_1 >= -2588
 c257: K_a3_a4 + K_a4_a3 = 1
 c258: u_a5 + K_a3_a5 - 1294 m_a3_proc_0 - 1294 m_a5_proc_0 - u_a3
       - 683 y_a3_proc_0 >= -2588
 c259: K_a3_a5 + K_a5_a3 = 1
 c260: u_a3 + K_a5_a3 - 1294 m_a3_proc_0 - 1294 m_a5_proc_0 - u_a5
       - 788 y_a5_proc_0 >= -2588
 c261: K_a3_a5 + K_a5_a3 = 1
 c262: u_a6 + K_a3_a6 - 1294 m_a3_proc_1 - 1294 m_a6_proc_1 - u_a3
       - 866 y_a3_proc_1 >= -2588
 c263: K_a3_a6 + K_a6_a3 = 1
 c264: u_a3 + K_a6_a3 - 1294 m_a3_proc_1 - 1294 m_a6_proc_1 - u_a6
       - 994 y_a6_proc_1 >= -2588
 c265: K_a3_a6 + K_a6_a3 = 1
 c266: u_a7 + K_a3_a7 - 1294 m_a3_proc_1 - 1294 m_a7_proc_1 - u_a3
       - 866 y_a3_proc_1 >= -2588
 c267: K_a3_a7 + K_a7_a3 = 1
 c268: u_a3 + K_a7_a3 - 1294 m_a3_proc_1 - 1294 m_a7_proc_1 - u_a7
       - 882 y_a7_proc_1 >= -2588
 c269: K_a3_a7 + K_a7_a3 = 1
 c270: u_a8 + K_a3_a8 - 1294 m_a3_proc_0 - 1294 m_a8_proc_0 - u_a3
       - 683 y_a3_proc_0 >= -2588
 c271: u_a8 + K_a3_a8 - 1294 m_a3_proc_1 - 1294 m_a8_proc_1 - u_a3
       - 866 y_a3_proc_1 >= -2588
 c272: K_a3_a8 + K_a8_a3 = 1
 c273: u_a3 + K_a8_a3 - 1294 m_a3_proc_0 - 1294 m_a8_proc_0 - u_a8
       - 992 y_a8_proc_0 >= -2588
 c274: u_a3 + K_a8_a3 - 1294 m_a3_proc_1 - 1294 m_a8_proc_1 - u_a8
       - 1271 y_a8_proc_1 >= -2588
 c275: K_a3_a8 + K_a8_a3 = 1
 c276: u_a9 + K_a3_a9 - 1294 m_a3_proc_0 - 1294 m_a9_proc_0 - u_a3
       - 683 y_a3_proc_0 >= -2588
 c277: u_a9 + K_a3_a9 - 1294 m_a3_proc_1 - 1294 m_a9_proc_1 - u_a3
       - 866 y_a3_proc_1 >= -2588
 c278: K_a3_a9 + K_a9_a3 = 1
 c279: u_a3 + K_a9_a3 - 1294 m_a3_proc_0 - 1294 m_a9_proc_0 - u_a9
       - 1162 y_a9_proc_0 >= -2588
 c280: u_a3 + K_a9_a3 - 1294 m_a3_proc_1 - 1294 m_a9_proc_1 - u_a9
       - 1195 y_a9_proc_1 >= -2588
 c281: K_a3_a9 + K_a9_a3 = 1
 c282: u_a5 + K_a4_a5 - 1294 m_a4_proc_2 - 1294 m_a5_proc_2 - u_a4
       - 980 y_a4_proc_2 >= -2588
 c283: u_a5 + K_a4_a5 - 1294 m_a4_proc_0 - 1294 m_a5_proc_0 - u_a4
       - 993 y_a4_proc_0 >= -2588
 c284: K_a4_a5 + K_a5_a4 = 1
 c285: u_a4 + K_a5_a4 - 1294 m_a4_proc_2 - 1294 m_a5_proc_2 - u_a5
       - 998 y_a5_proc_2 >= -2588
 c286: u_a4 + K_a5_a4 - 1294 m_a4_proc_0 - 1294 m_a5_proc_0 - u_a5
       - 788 y_a5_proc_0 >= -2588
 c287: K_a4_a5 + K_a5_a4 = 1
 c288: u_a6 + K_a4_a6 - 1294 m_a4_proc_2 - 1294 m_a6_proc_2 - u_a4
       - 980 y_a4_proc_2 >= -2588
 c289: u_a6 + K_a4_a6 - 1294 m_a4_proc_1 - 1294 m_a6_proc_1 - u_a4
       - 1184 y_a4_proc_1 >= -2588
 c290: K_a4_a6 + K_a6_a4 = 1
 c291: u_a4 + K_a6_a4 - 1294 m_a4_proc_2 - 1294 m_a6_proc_2 - u_a6
       - 803 y_a6_proc_2 >= -2588
 c292: u_a4 + K_a6_a4 - 1294 m_a4_proc_1 - 1294 m_a6_proc_1 - u_a6
       - 994 y_a6_proc_1 >= -2588
 c293: K_a4_a6 + K_a6_a4 = 1
 c294: u_a7 + K_a4_a7 - 1294 m_a4_proc_2 - 1294 m_a7_proc_2 - u_a4
       - 980 y_a4_proc_2 >= -2588
 c295: u_a7 + K_a4_a7 - 1294 m_a4_proc_1 - 1294 m_a7_proc_1 - u_a4
       - 1184 y_a4_proc_1 >= -2588
 c296: K_a4_a7 + K_a7_a4 = 1
 c297: u_a4 + K_a7_a4 - 1294 m_a4_proc_2 - 1294 m_a7_proc_2 - u_a7
       - 1056 y_a7_proc_2 >= -2588
 c298: u_a4 + K_a7_a4 - 1294 m_a4_proc_1 - 1294 m_a7_proc_1 - u_a7
       - 882 y_a7_proc_1 >= -2588
 c299: K_a4_a7 + K_a7_a4 = 1
 c300: u_a8 + K_a4_a8 - 1294 m_a4_proc_2 - 1294 m_a8_proc_2 - u_a4
       - 980 y_a4_proc_2 >= -2588
 c301: u_a8 + K_a4_a8 - 1294 m_a4_proc_0 - 1294 m_a8_proc_0 - u_a4
       - 993 y_a4_proc_0 >= -2588
 c302: u_a8 + K_a4_a8 - 1294 m_a4_proc_1 - 1294 m_a8_proc_1 - u_a4
       - 1184 y_a4_proc_1 >= -2588
 c303: K_a4_a8 + K_a8_a4 = 1
 c304: u_a4 + K_a8_a4 - 1294 m_a4_proc_2 - 1294 m_a8_proc_2 - u_a8
       - 974 y_a8_proc_2 >= -2588
 c305: u_a4 + K_a8_a4 - 1294 m_a4_proc_0 - 1294 m_a8_proc_0 - u_a8
       - 992 y_a8_proc_0 >= -2588
 c306: u_a4 + K_a8_a4 - 1294 m_a4_proc_1 - 1294 m_a8_proc_1 - u_a8
       - 1271 y_a8_proc_1 >= -2588
 c307: K_a4_a8 + K_a8_a4 = 1
 c308: u_a9 + K_a4_a9 - 1294 m_a4_proc_2 - 1294 m_a9_proc_2 - u_a4
       - 980 y_a4_proc_2 >= -2588
 c309: u_a9 + K_a4_a9 - 1294 m_a4_proc_0 - 1294 m_a9_proc_0 - u_a4
       - 993 y_a4_proc_0 >= -2588
 c310: u_a9 + K_a4_a9 - 1294 m_a4_proc_1 - 1294 m_a9_proc_1 - u_a4
       - 1184 y_a4_proc_1 >= -2588
 c311: K_a4_a9 + K_a9_a4 = 1
 c312: u_a4 + K_a9_a4 - 1294 m_a4_proc_2 - 1294 m_a9_proc_2 - u_a9
       - 1040 y_a9_proc_2 >= -2588
 c313: u_a4 + K_a9_a4 - 1294 m_a4_proc_0 - 1294 m_a9_proc_0 - u_a9
       - 1162 y_a9_proc_0 >= -2588
 c314: u_a4 + K_a9_a4 - 1294 m_a4_proc_1 - 1294 m_a9_proc_1 - u_a9
       - 1195 y_a9_proc_1 >= -2588
 c315: K_a4_a9 + K_a9_a4 = 1
 c316: u_a6 + K_a5_a6 - 1294 m_a5_proc_2 - 1294 m_a6_proc_2 - u_a5
       - 998 y_a5_proc_2 >= -2588
 c317: K_a5_a6 + K_a6_a5 = 1
 c318: u_a5 + K_a6_a5 - 1294 m_a5_proc_2 - 1294 m_a6_proc_2 - u_a6
       - 803 y_a6_proc_2 >= -2588
 c319: K_a5_a6 + K_a6_a5 = 1
 c320: u_a7 + K_a5_a7 - 1294 m_a5_proc_2 - 1294 m_a7_proc_2 - u_a5
       - 998 y_a5_proc_2 >= -2588
 c321: K_a5_a7 + K_a7_a5 = 1
 c322: u_a5 + K_a7_a5 - 1294 m_a5_proc_2 - 1294 m_a7_proc_2 - u_a7
       - 1056 y_a7_proc_2 >= -2588
 c323: K_a5_a7 + K_a7_a5 = 1
 c324: u_a8 + K_a5_a8 - 1294 m_a5_proc_2 - 1294 m_a8_proc_2 - u_a5
       - 998 y_a5_proc_2 >= -2588
 c325: u_a8 + K_a5_a8 - 1294 m_a5_proc_0 - 1294 m_a8_proc_0 - u_a5
       - 788 y_a5_proc_0 >= -2588
 c326: K_a5_a8 + K_a8_a5 = 1
 c327: u_a5 + K_a8_a5 - 1294 m_a5_proc_2 - 1294 m_a8_proc_2 - u_a8
       - 974 y_a8_proc_2 >= -2588
 c328: u_a5 + K_a8_a5 - 1294 m_a5_proc_0 - 1294 m_a8_proc_0 - u_a8
       - 992 y_a8_proc_0 >= -2588
 c329: K_a5_a8 + K_a8_a5 = 1
 c330: u_a9 + K_a5_a9 - 1294 m_a5_proc_2 - 1294 m_a9_proc_2 - u_a5
       - 998 y_a5_proc_2 >= -2588
 c331: u_a9 + K_a5_a9 - 1294 m_a5_proc_0 - 1294 m_a9_proc_0 - u_a5
       - 788 y_a5_proc_0 >= -2588
 c332: K_a5_a9 + K_a9_a5 = 1
 c333: u_a5 + K_a9_a5 - 1294 m_a5_proc_2 - 1294 m_a9_proc_2 - u_a9
       - 1040 y_a9_proc_2 >= -2588
 c334: u_a5 + K_a9_a5 - 1294 m_a5_proc_0 - 1294 m_a9_proc_0 - u_a9
       - 1162 y_a9_proc_0 >= -2588
 c335: K_a5_a9 + K_a9_a5 = 1
 c336: u_a7 + K_a6_a7 - 1294 m_a6_proc_2 - 1294 m_a7_proc_2 - u_a6
       - 803 y_a6_proc_2 >= -2588
 c337: u_a7 + K_a6_a7 - 1294 m_a6_proc_1 - 1294 m_a7_proc_1 - u_a6
       - 994 y_a6_proc_1 >= -2588
 c338: K_a6_a7 + K_a7_a6 = 1
 c339: u_a6 + K_a7_a6 - 1294 m_a6_proc_2 - 1294 m_a7_proc_2 - u_a7
       - 1056 y_a7_proc_2 >= -2588
 c340: u_a6 + K_a7_a6 - 1294 m_a6_proc_1 - 1294 m_a7_proc_1 - u_a7
       - 882 y_a7_proc_1 >= -2588
 c341: K_a6_a7 + K_a7_a6 = 1
 c342: u_a8 + K_a6_a8 - 1294 m_a6_proc_2 - 1294 m_a8_proc_2 - u_a6
       - 803 y_a6_proc_2 >= -2588
 c343: u_a8 + K_a6_a8 - 1294 m_a6_proc_1 - 1294 m_a8_proc_1 - u_a6
       - 994 y_a6_proc_1 >= -2588
 c344: K_a6_a8 + K_a8_a6 = 1
 c345: u_a6 + K_a8_a6 - 1294 m_a6_proc_2 - 1294 m_a8_proc_2 - u_a8
       - 974 y_a8_proc_2 >= -2588
 c346: u_a6 + K_a8_a6 - 1294 m_a6_proc_1 - 1294 m_a8_proc_1 - u_a8
       - 1271 y_a8_proc_1 >= -2588
 c347: K_a6_a8 + K_a8_a6 = 1
 c348: u_a9 + K_a6_a9 - 1294 m_a6_proc_2 - 1294 m_a9_proc_2 - u_a6
       - 803 y_a6_proc_2 >= -2588
 c349: u_a9 + K_a6_a9 - 1294 m_a6_proc_1 - 1294 m_a9_proc_1 - u_a6
       - 994 y_a6_proc_1 >= -2588
 c350: K_a6_a9 + K_a9_a6 = 1
 c351: u_a6 + K_a9_a6 - 1294 m_a6_proc_2 - 1294 m_a9_proc_2 - u_a9
       - 1040 y_a9_proc_2 >= -2588
 c352: u_a6 + K_a9_a6 - 1294 m_a6_proc_1 - 1294 m_a9_proc_1 - u_a9
       - 1195 y_a9_proc_1 >= -2588
 c353: K_a6_a9 + K_a9_a6 = 1
 c354: u_a8 + K_a7_a8 - 1294 m_a7_proc_2 - 1294 m_a8_proc_2 - u_a7
       - 1056 y_a7_proc_2 >= -2588
 c355: u_a8 + K_a7_a8 - 1294 m_a7_proc_1 - 1294 m_a8_proc_1 - u_a7
       - 882 y_a7_proc_1 >= -2588
 c356: K_a7_a8 + K_a8_a7 = 1
 c357: u_a7 + K_a8_a7 - 1294 m_a7_proc_2 - 1294 m_a8_proc_2 - u_a8
       - 974 y_a8_proc_2 >= -2588
 c358: u_a7 + K_a8_a7 - 1294 m_a7_proc_1 - 1294 m_a8_proc_1 - u_a8
       - 1271 y_a8_proc_1 >= -2588
 c359: K_a7_a8 + K_a8_a7 = 1
 c360: u_a9 + K_a7_a9 - 1294 m_a7_proc_2 - 1294 m_a9_proc_2 - u_a7
       - 1056 y_a7_proc_2 >= -2588
 c361: u_a9 + K_a7_a9 - 1294 m_a7_proc_1 - 1294 m_a9_proc_1 - u_a7
       - 882 y_a7_proc_1 >= -2588
 c362: K_a7_a9 + K_a9_a7 = 1
 c363: u_a7 + K_a9_a7 - 1294 m_a7_proc_2 - 1294 m_a9_proc_2 - u_a9
       - 1040 y_a9_proc_2 >= -2588
 c364: u_a7 + K_a9_a7 - 1294 m_a7_proc_1 - 1294 m_a9_proc_1 - u_a9
       - 1195 y_a9_proc_1 >= -2588
 c365: K_a7_a9 + K_a9_a7 = 1
 c366: u_a9 + K_a8_a9 - 1294 m_a8_proc_2 - 1294 m_a9_proc_2 - u_a8
       - 974 y_a8_proc_2 >= -2588
 c367: u_a9 + K_a8_a9 - 1294 m_a8_proc_0 - 1294 m_a9_proc_0 - u_a8
       - 992 y_a8_proc_0 >= -2588
 c368: u_a9 + K_a8_a9 - 1294 m_a8_proc_1 - 1294 m_a9_proc_1 - u_a8
       - 1271 y_a8_proc_1 >= -2588
 c369: K_a8_a9 + K_a9_a8 = 1
 c370: u_a8 + K_a9_a8 - 1294 m_a8_proc_2 - 1294 m_a9_proc_2 - u_a9
       - 1040 y_a9_proc_2 >= -2588
 c371: u_a8 + K_a9_a8 - 1294 m_a8_proc_0 - 1294 m_a9_proc_0 - u_a9
       - 1162 y_a9_proc_0 >= -2588
 c372: u_a8 + K_a9_a8 - 1294 m_a8_proc_1 - 1294 m_a9_proc_1 - u_a9
       - 1195 y_a9_proc_1 >= -2588
 c373: K_a8_a9 + K_a9_a8 = 1

Bounds
       K_a0_a1 Free
       K_a0_a2 Free
       K_a0_a3 Free
       K_a0_a4 Free
       K_a0_a5 Free
       K_a0_a6 Free
       K_a0_a7 Free
       K_a0_a8 Free
       K_a0_a9 Free
       K_a1_a0 Free
       K_a1_a2 Free
       K_a1_a3 Free
       K_a1_a4 Free
       K_a1_a5 Free
       K_a1_a6 Free
       K_a1_a7 Free
       K_a1_a8 Free
       K_a1_a9 Free
       K_a2_a0 Free
       K_a2_a1 Free
       K_a2_a3 Free
       K_a2_a4 Free
       K_a2_a5 Free
       K_a2_a6 Free
       K_a2_a7 Free
       K_a2_a8 Free
       K_a2_a9 Free
       K_a3_a0 Free
       K_a3_a1 Free
       K_a3_a2 Free
       K_a3_a4 Free
       K_a3_a5 Free
       K_a3_a6 Free
       K_a3_a7 Free
       K_a3_a8 Free
       K_a3_a9 Free
       K_a4_a0 Free
       K_a4_a1 Free
       K_a4_a2 Free
       K_a4_a3 Free
       K_a4_a5 Free
       K_a4_a6 Free
       K_a4_a7 Free
       K_a4_a8 Free
       K_a4_a9 Free
       K_a5_a0 Free
       K_a5_a1 Free
       K_a5_a2 Free
       K_a5_a3 Free
       K_a5_a4 Free
       K_a5_a6 Free
       K_a5_a7 Free
       K_a5_a8 Free
       K_a5_a9 Free
       K_a6_a0 Free
       K_a6_a1 Free
       K_a6_a2 Free
       K_a6_a3 Free
       K_a6_a4 Free
       K_a6_a5 Free
       K_a6_a7 Free
       K_a6_a8 Free
       K_a6_a9 Free
       K_a7_a0 Free
       K_a7_a1 Free
       K_a7_a2 Free
       K_a7_a3 Free
       K_a7_a4 Free
       K_a7_a5 Free
       K_a7_a6 Free
       K_a7_a8 Free
       K_a7_a9 Free
       K_a8_a0 Free
       K_a8_a1 Free
       K_a8_a2 Free
       K_a8_a3 Free
       K_a8_a4 Free
       K_a8_a5 Free
       K_a8_a6 Free
       K_a8_a7 Free
       K_a8_a9 Free
       K_a9_a0 Free
       K_a9_a1 Free
       K_a9_a2 Free
       K_a9_a3 Free
       K_a9_a4 Free
       K_a9_a5 Free
       K_a9_a6 Free
       K_a9_a7 Free
       K_a9_a8 Free
 0 <= m_a0_proc_0 <= 1
 0 <= m_a0_proc_1 <= 1
 0 <= m_a0_proc_2 <= 1
 0 <= m_a1_proc_0 <= 1
 0 <= m_a1_proc_1 <= 1
 0 <= m_a1_proc_2 <= 1
 0 <= m_a2_proc_0 <= 1
 0 <= m_a2_proc_2 <= 1
 0 <= m_a3_proc_0 <= 1
 0 <= m_a3_proc_1 <= 1
 0 <= m_a4_proc_0 <= 1
 0 <= m_a4_proc_1 <= 1
 0 <= m_a4_proc_2 <= 1
 0 <= m_a5_proc_0 <= 1
 0 <= m_a5_proc_2 <= 1
 0 <= m_a6_proc_1 <= 1
 0 <= m_a6_proc_2 <= 1
 0 <= m_a7_proc_1 <= 1
 0 <= m_a7_proc_2 <= 1
 0 <= m_a8_proc_0 <= 1
 0 <= m_a8_proc_1 <= 1
 0 <= m_a8_proc_2 <= 1
 0 <= m_a9_proc_0 <= 1
 0 <= m_a9_proc_1 <= 1
 0 <= m_a9_proc_2 <= 1

Binaries
 m_a0_proc_0 m_a0_proc_1 m_a0_proc_2 m_a1_proc_0 m_a1_proc_1 m_a1_proc_2
 m_a2_proc_0 m_a2_proc_2 m_a3_proc_0 m_a3_proc_1 m_a4_proc_0 m_a4_proc_1
 m_a4_proc_2 m_a5_proc_0 m_a5_proc_2 m_a6_proc_1 m_a6_proc_2 m_a7_proc_1
 m_a7_proc_2 m_a8_proc_0 m_a8_proc_1 m_a8_proc_2 m_a9_proc_0 m_a9_proc_1
 m_a9_proc_2

Generals
 K_a0_a1 K_a0_a2 K_a0_a3 K_a0_a4 K_a0_a5 K_a0_a6 K_a0_a7 K_a0_a8 K_a0_a9 K_a1_a0
 K_a1_a2 K_a1_a3 K_a1_a4 K_a1_a5 K_a1_a6 K_a1_a7 K_a1_a8 K_a1_a9 K_a2_a0 K_a2_a1
 K_a2_a3 K_a2_a4 K_a2_a5 K_a2_a6 K_a2_a7 K_a2_a8 K_a2_a9 K_a3_a0 K_a3_a1 K_a3_a2
 K_a3_a4 K_a3_a5 K_a3_a6 K_a3_a7 K_a3_a8 K_a3_a9 K_a4_a0 K_a4_a1 K_a4_a2 K_a4_a3
 K_a4_a5 K_a4_a6 K_a4_a7 K_a4_a8 K_a4_a9 K_a5_a0 K_a5_a1 K_a5_a2 K_a5_a3 K_a5_a4
 K_a5_a6 K_a5_a7 K_a5_a8 K_a5_a9 K_a6_a0 K_a6_a1 K_a6_a2 K_a6_a3 K_a6_a4 K_a6_a5
 K_a6_a7 K_a6_a8 K_a6_a9 K_a7_a0 K_a7_a1 K_a7_a2 K_a7_a3 K_a7_a4 K_a7_a5 K_a7_a6
 K_a7_a8 K_a7_a9 K_a8_a0 K_a8_a1 K_a8_a2 K_a8_a3 K_a8_a4 K_a8_a5 K_a8_a6 K_a8_a7
 K_a8_a9 K_a9_a0 K_a9_a1 K_a9_a2 K_a9_a3 K_a9_a4 K_a9_a5 K_a9_a6 K_a9_a7 K_a9_a8
End
