benchmark/results/graph__10-1000-0.10-03_2/graph__10-1000-0.10-03_2_Quinton_Monolithic.txt
solution for: Quinton Monolithic
objective: 0.000258465
status: OPTIMAL_SOLUTION(2)
u_a0=2.502
u_a1=2.309
u_a2=3.180
u_a3=2.363
u_a4=2.927
u_a5=1.540
u_a6=2.699
u_a7=2.699
u_a8=0.744
tau=0.000
K_a0_a1=1
K_a0_a2=1
K_a0_a3=1
K_a0_a5=1
K_a0_a7=1
K_a0_a8=1
K_a0_a9=-1291
K_a1_a2=1
K_a1_a3=1
K_a1_a4=1
K_a1_a5=1
K_a1_a6=1294
K_a1_a8=-1292
K_a1_a9=3
K_a2_a3=1
K_a2_a4=1
K_a2_a5=2
K_a2_a6=-1293
K_a2_a7=-2587
K_a2_a8=3
K_a2_a9=-1290
K_a3_a4=1294
K_a3_a5=1
K_a3_a6=-2588
K_a3_a7=-1294
K_a3_a8=2
K_a3_a9=1
K_a4_a0=1
K_a4_a3=-1293
K_a4_a5=1
K_a4_a6=1
K_a4_a7=1
K_a4_a8=1
K_a4_a9=-1290
K_a5_a2=-1
K_a5_a6=-1295
K_a5_a7=-2589
K_a5_a8=1
K_a5_a9=1
K_a6_a0=1
K_a6_a1=-1293
K_a6_a2=1294
K_a6_a3=2589
K_a6_a5=1296
K_a6_a7=1294
K_a6_a8=1
K_a6_a9=-1291
K_a7_a1=1
K_a7_a2=2588
K_a7_a3=1295
K_a7_a5=2590
K_a7_a6=-1293
K_a7_a8=-1291
K_a7_a9=3
K_a8_a1=1293
K_a8_a2=-2
K_a8_a3=-1
K_a8_a7=1292
K_a8_a9=1
K_a9_a0=1292
K_a9_a1=-2
K_a9_a2=1291
K_a9_a4=1291
K_a9_a6=1292
K_a9_a7=-2
m_a0_proc_2=1
m_a1_proc_1=1
m_a2_proc_0=1
m_a3_proc_0=1
m_a4_proc_2=1
m_a5_proc_0=1
m_a6_proc_2=1
m_a7_proc_1=1
m_a8_proc_0=1
m_a9_proc_1=1
y_a0_proc_2=0.000
y_a1_proc_1=0.000
y_a2_proc_0=0.000
y_a3_proc_0=0.000
y_a4_proc_2=0.000
y_a5_proc_0=0.000
y_a6_proc_2=0.000
y_a7_proc_1=0.000
y_a8_proc_0=0.000
y_a9_proc_1=0.000
